VALUE 23061
1 78
2 53
2 31
3 48
3 19
3 36
3 44
4 19
4 6
5 52
6 56
6 76
7 21
7 27
7 61
8 50
9 32
9 34
9 75
10 18
10 69
10 11
12 66
13 54
14 17
14 72
14 41
14 63
15 61
16 74
17 25
18 44
19 34
20 67
22 35
22 70
23 52
23 38
24 63
26 41
27 37
27 76
28 66
29 58
29 59
30 80
32 49
32 46
33 58
34 80
34 43
35 47
36 52
36 73
36 74
36 60
38 53
39 69
39 78
40 77
40 79
41 66
42 67
43 65
44 70
44 63
45 55
45 71
45 60
46 54
50 58
51 54
52 77
54 64
57 72
58 80
62 79
63 67
68 73